1334
1500000
998224
998224
991387
991387
991387
991387
991387
991387
991387
991387
991387
991387
991387
991387
991387
991387
991387
991387
986353
986353
986353
986353
986353
986353
986353
986353
986353
986353
986353
986353
986353
986353
986353
986353
986353
976082
976082
976082
976082
976082
976082
970281
970281
970281
970281
970281
970281
970281
970281
970281
970281
970281
970281
970281
970281
963895
963895
963895
963895
963895
963895
963895
963895
963895
963895
963895
963895
963895
963895
963895
963895
963895
963895
960715
960715
960715
960715
960715
960715
960715
960715
960715
960715
960715
960715
960715
960715
952436
952436
952436
952436
952436
952436
952436
952436
952436
952436
952436
952436
952436
952436
952436
952436
928010
928010
928010
928010
928010
928010
928010
928010
928010
928010
928010
928010
928010
928010
928010
928010
928010
928010
919676
919676
919676
919676
919676
916904
916904
916904
916904
916904
916904
916904
916904
916904
916904
916904
916904
916361
916361
916361
916361
916361
916361
916361
916361
916361
916361
916361
916361
894616
894616
894616
894616
894616
894616
881438
881438
881438
881438
880386
880386
880386
880386
880386
872545
872545
872545
872545
872545
872545
872545
872545
872545
872545
872545
872545
872545
872545
872545
872545
872545
853135
853135
853135
853135
853135
853135
853135
853135
853135
850773
850773
850773
850773
850773
850773
850773
850773
850773
850773
846144
846144
846144
846144
846144
846144
846144
846144
846144
846144
846144
846144
846144
846144
846144
846144
846144
846144
846144
846144
844868
844868
844868
844868
844868
844868
844868
844868
844868
844868
844868
844868
844868
842444
842444
842444
842444
842444
842444
842444
842444
842444
842444
842444
842444
842444
842444
842444
842444
842444
842444
840034
840034
840034
840034
840034
840034
840034
840034
840034
840034
840034
840034
840034
840034
840034
826614
826614
826614
826614
826614
826614
826614
826614
826614
826614
826614
818278
818278
818278
818278
818278
818278
818278
818278
818278
818278
818278
818278
810132
810132
810132
810132
810132
810132
810132
810132
810132
810132
810132
810132
810132
810132
810132
810132
810132
810132
810132
809567
809567
809567
809567
809567
809567
809567
809567
809567
809567
809567
809567
809567
809567
809567
809394
809394
809394
809394
809394
809394
809394
809394
809394
809394
809394
809394
809394
809394
804609
804609
804609
804609
804609
804609
804609
804609
804609
804609
804609
804609
804609
804609
804609
804609
804609
804609
804609
803966
803966
803966
803966
803966
800229
800229
800229
800229
800229
800229
791858
791858
791858
791858
791858
791858
791858
791858
791858
791858
791858
791858
791858
791858
791858
790402
790402
790402
790402
790402
790402
790402
790402
790402
790402
790402
790402
790402
790402
789031
789031
788529
788529
788529
788529
788529
788529
783278
783278
783278
783278
783278
783278
783278
783278
783278
783278
783278
783278
783278
783278
783278
783278
783278
779478
779478
779478
779478
779478
779478
779478
779478
779478
779478
779478
779478
779478
779478
777807
777807
777807
777807
777807
771184
771184
771184
753262
753262
753262
753262
753262
753262
753262
753262
753262
753262
753262
753262
753262
753262
753262
753262
751784
751784
751784
751784
751784
751784
747628
747628
747628
747628
747628
747628
747628
747628
747628
747628
747628
747628
747628
747628
733403
733403
733403
733403
733403
733403
733403
733403
733403
733403
733403
733403
733403
733403
729551
729551
729551
729551
729551
729551
729551
729551
729551
725036
725036
725036
705933
705933
705933
705933
705933
705933
705933
705933
705933
705933
705933
692939
692939
687629
687629
687629
687629
674456
674456
665507
663053
663053
663053
663053
663053
658029
658029
658029
658029
651685
651685
651685
651685
651685
651685
650989
650989
650989
650989
650989
650989
650989
650989
650989
650989
650989
650989
650989
650989
650989
650989
650989
646766
646766
646766
646766
639716
639716
639716
639716
639716
639716
639716
639716
639716
639716
639716
639716
639716
639716
639716
639716
638715
638715
638715
638715
638715
638715
638715
638715
638715
638715
638715
638715
638715
638715
638715
638715
638715
638715
636786
636786
633446
633446
633446
633446
633446
633446
633446
633446
633446
633446
633446
633446
633446
633446
626761
626761
626761
626761
626761
626761
626761
626761
626761
626761
626761
626761
626761
626761
626761
626761
626761
626761
624924
624924
624924
624924
624101
624101
624101
624101
624101
624101
624101
624101
624101
624101
624101
624101
624101
624101
624101
624101
624101
624101
624101
624101
617335
617335
617335
617335
617335
617335
617335
617335
617335
617335
617335
609661
609661
609661
609661
609661
609661
609661
609661
609661
609661
609661
609661
609661
609661
609661
609661
609661
609661
609661
603888
603888
603888
603888
603888
603888
600352
600352
600352
600352
600352
600352
600352
600352
600352
600352
597306
597306
597306
596874
596874
596874
596874
596874
596874
596874
594770
594770
594770
594770
594770
594770
572936
572936
572936
572936
572936
572936
572936
564246
564246
564246
564246
564246
564246
563086
563086
563086
563086
563086
563086
563086
559705
559705
559705
559705
559705
559705
559705
559705
559705
559705
559705
559705
559705
559705
559705
559705
559705
559705
559705
545394
545394
545394
545394
545394
545394
545394
545394
545394
545394
545394
545394
534517
534517
534517
534517
534517
534517
534517
534517
534517
534517
534517
534517
534517
534517
534517
534517
524203
520769
520769
520769
520769
520769
520769
520769
520769
520769
497325
497325
497325
497325
497325
497325
497325
497325
497325
497325
497325
489753
482828
482828
482828
482828
482828
482828
482828
482828
482828
482828
482828
482828
482828
482828
482828
482828
482828
481162
481162
481162
481162
481162
481162
481162
481162
481162
481162
477975
477975
477975
477975
477975
477975
477975
477975
477975
477975
477975
477975
477975
477975
477975
476133
476133
476050
476050
476050
476050
476050
476050
476050
476050
476050
476050
476050
476050
476050
476050
476050
473459
473459
473459
473459
473459
473459
473459
473459
467515
467515
467515
467515
467515
467515
464739
464739
461381
461381
461381
461381
461381
461381
461381
461381
461381
461381
461381
461381
461381
461381
461381
461381
461381
461381
461381
461010
461010
461010
461010
461010
455715
455715
455715
455715
455715
455715
455715
455715
455715
455715
455715
455715
455715
447891
447891
447891
447891
447891
447891
447891
447891
447891
447891
447891
447891
447891
447891
447891
447891
443769
443769
443769
443769
443769
443769
443769
443769
443769
443769
443769
443769
443769
443769
430893
430893
410493
410493
410493
410493
410493
410493
410493
410493
410493
410493
410493
410493
410493
410493
410493
410493
410493
410287
410287
410287
410287
410287
410287
410287
410287
410287
410287
403981
403981
403981
403981
403981
403981
403981
403981
403981
403981
403981
402818
402818
402818
402818
402818
402818
402818
402818
402818
402818
402818
388119
388119
388119
388119
388119
388119
388119
388119
388119
388119
388119
388119
388119
388119
388119
388119
388119
388119
388119
383930
383930
383930
383930
383930
383930
383930
383930
383930
375985
375985
375985
375985
375985
375985
375985
375985
375985
375985
375985
375985
375985
373900
373900
373900
373900
373900
373900
373900
373900
373900
373900
373900
373900
372529
372529
372529
372529
372529
372529
372529
372529
372529
372529
372529
372529
372529
372529
372529
372529
372529
372529
372529
372529
362625
362625
362625
362625
362625
362625
362625
358772
358772
358772
358772
358772
358772
358772
358772
358772
358772
358772
358772
358772
358772
358772
358772
358772
358772
358726
358726
358726
358726
358726
356797
356797
356797
356797
356797
356797
337796
337796
337796
337796
337796
337796
337796
337796
337796
337796
337796
337796
337796
337796
337796
337796
332155
332155
332155
332155
332155
332155
332155
332155
332155
332155
297341
297341
297341
297341
297341
297341
297341
297341
297341
297341
297341
278831
278831
278831
278831
278831
278831
278831
278831
278831
278831
278831
278831
278831
278831
270637
270637
270637
270637
270637
270637
270637
270637
270637
270637
270637
270637
270637
270637
270637
270637
270637
270637
268712
268712
268712
268712
268712
268712
268712
268712
268712
268712
268712
268712
268712
268712
268610
266062
266062
266062
266062
266062
266062
266062
266062
266062
257373
257373
257373
257373
257373
257373
257373
257373
257373
257373
257373
257373
257373
257373
257373
256936
256936
256936
256936
256936
256936
256936
256936
255601
255601
255601
255601
255601
255601
255601
255601
255601
255601
255601
255601
255601
255601
255601
255601
255601
255601
255601
255601
255075
255075
255075
255075
255075
255075
237831
237831
237831
237831
237831
237831
237831
237831
237831
237831
235607
235607
235607
235607
235607
235607
235607
235607
235607
235607
235607
235607
235607
235607
235607
235607
235607
235607
234702
234702
234702
234702
234702
234702
234702
234702
234702
234702
234702
234702
234702
234702
234702
234702
234702
234702
234702
225128
225128
225128
225128
225128
225128
225128
225128
225128
225128
225128
223303
223303
223303
223303
223303
223303
223303
223303
219066
219066
219066
219066
219066
219066
219066
219066
219066
213094
213094
213094
205506
205506
205506
205506
205506
205506
205506
